set I  :=  P1  P2  P3  P4  P5 ;
set J  :=  S1  S2  S3 ;
set K  :=  S1  S3 ;

param N := 3 ;

param C := 
S1  90
S2  80
S3  107
 ; 

param P := 
P1  30
P2  42
P3  27
P4  46
P5  28
 ; 

param d[*,*] :  S1  S2  S3   :=
P1 87   209   264   
P2 341   234   269   
P3 360   183   134   
P4 234   25   88   
P5 378   149   77   
 ;

param: coordX  coordY  := 
S1   82  70
S2   173  288
S3   171  360
P1   27  138
P2   394  209
P3   56  430
P4   195  275
P5   175  437
 ;
 